CPXPARAM_TimeLimit                               3600
CPXPARAM_Read_DataCheck                          1
Parallel mode: deterministic, using up to 8 threads for concurrent optimization.
Tried aggregator 1 time.
No LP presolve or aggregator reductions.
Presolve time = 0.00 sec. (2.35 ticks)

Iteration log . . .
Iteration:     1   Dual objective     =          1012.000000
Perturbation started.
Iteration:   101   Dual objective     =          1012.000000
Iteration:   222   Dual objective     =          1012.019114
Iteration:   431   Dual objective     =          1012.028415
Iteration:   656   Dual objective     =          1012.028419
Iteration:   880   Dual objective     =          1012.028421
Iteration:  1109   Dual objective     =          1012.028424
Iteration:  1342   Dual objective     =          1012.028425
Iteration:  1570   Dual objective     =          1012.028426
Iteration:  1801   Dual objective     =          1012.028426
Removing perturbation.

Dual simplex solved model.

